
Gurobi 9.0.1 (linux64) logging started Thu Apr 30 21:16:57 2020

Gurobi Optimizer version 9.0.1 build v9.0.1rc0 (linux64)
Optimize a model with 31542 rows, 27380 columns and 602600 nonzeros
Model fingerprint: 0x69b75f74
Variable types: 0 continuous, 27380 integer (27342 binary)
Coefficient statistics:
  Matrix range     [1e+00, 2e+01]
  Objective range  [1e+00, 1e+02]
  Bounds range     [1e+00, 1e+00]
  RHS range        [1e+00, 1e+00]

User MIP start produced solution with objective 1167 (0.94s)
Loaded user MIP start with objective 1167

Presolve removed 12792 rows and 8708 columns (presolve time = 5s) ...
Presolve removed 12834 rows and 8768 columns (presolve time = 10s) ...
Presolve removed 12834 rows and 8768 columns
Presolve time: 10.85s
Presolved: 18708 rows, 18612 columns, 503760 nonzeros
Variable types: 0 continuous, 18612 integer (18576 binary)

Root simplex log...

Iteration    Objective       Primal Inf.    Dual Inf.      Time
       0    0.0000000e+00   2.280000e+02   0.000000e+00     14s
    1908    5.4380009e+02   2.584167e+03   0.000000e+00     15s
    3672    5.5008429e+02   1.059807e+04   0.000000e+00     20s
    5100    5.5268852e+02   7.096571e+03   0.000000e+00     25s
    6192    5.5323070e+02   9.431586e+03   0.000000e+00     30s
    7368    5.5517149e+02   1.007848e+04   0.000000e+00     35s
    8376    5.5670261e+02   7.781964e+03   0.000000e+00     40s
    9468    5.5783605e+02   2.661947e+05   0.000000e+00     45s
   10560    5.5922748e+02   4.926895e+06   0.000000e+00     50s
   11656    5.6006696e+02   5.978870e+03   0.000000e+00     55s
   12664    5.6075943e+02   3.033069e+04   0.000000e+00     60s
   13756    5.6208954e+02   3.856956e+04   0.000000e+00     65s
   14680    5.6287230e+02   5.688182e+03   0.000000e+00     70s
   15688    5.6366351e+02   1.570236e+04   0.000000e+00     75s
   16612    5.6558067e+02   1.247958e+04   0.000000e+00     80s
   17536    5.6617364e+02   5.937572e+03   0.000000e+00     85s
   18399    5.6688487e+02   1.104066e+04   0.000000e+00     90s
   19356    5.6760321e+02   4.822214e+03   0.000000e+00     95s
   20302    5.6864943e+02   8.279510e+05   0.000000e+00    100s
   21142    5.6909960e+02   8.262814e+03   0.000000e+00    105s
   21982    5.6962940e+02   3.368769e+03   0.000000e+00    110s
   22740    5.6984657e+02   4.101972e+03   0.000000e+00    115s
   23580    5.7003972e+02   4.043467e+03   0.000000e+00    120s
   24500    5.7051800e+02   5.430447e+03   0.000000e+00    125s
Warning: Markowitz tolerance tightened to 0.03125
   25409    5.7076604e+02   1.558614e+03   0.000000e+00    130s
   26298    5.7106375e+02   7.987702e+03   0.000000e+00    135s
   27156    5.7128187e+02   5.890218e+03   0.000000e+00    140s
   27981    5.7144520e+02   5.938618e+03   0.000000e+00    145s
   28772    5.7165456e+02   2.338259e+03   0.000000e+00    150s
   29627    5.7194875e+02   6.751261e+03   0.000000e+00    155s
   30502    5.7220905e+02   2.543090e+03   0.000000e+00    160s
   31319    5.7236363e+02   2.234267e+03   0.000000e+00    165s
   32082    5.7247151e+02   3.484670e+03   0.000000e+00    170s
   32927    5.7265901e+02   1.586566e+03   0.000000e+00    175s
   33709    5.7282674e+02   2.268471e+05   0.000000e+00    180s
   34599    5.7291477e+02   3.139759e+03   0.000000e+00    185s
   35387    5.7300595e+02   9.770711e+02   0.000000e+00    190s
   36260    5.7306882e+02   1.092581e+03   0.000000e+00    196s
   36960    5.7318047e+02   1.444796e+03   0.000000e+00    200s
   37831    5.7323674e+02   1.458292e+03   0.000000e+00    205s
   38562    5.7333364e+02   2.354542e+03   0.000000e+00    210s
   39326    5.7337028e+02   4.237995e+03   0.000000e+00    215s
   40117    5.7339654e+02   2.431934e+03   0.000000e+00    220s
   41018    5.7347645e+02   2.143472e+02   0.000000e+00    225s
   41839    5.7349585e+02   6.098235e+01   0.000000e+00    230s
   42635    5.7350356e+02   1.415839e+04   0.000000e+00    235s
   43444    5.7352338e+02   2.722874e+02   0.000000e+00    241s
   44215    5.7352960e+02   8.963516e+01   0.000000e+00    245s
   44787    5.7353264e+02   0.000000e+00   0.000000e+00    249s

Root relaxation: objective 5.735326e+02, 44787 iterations, 236.69 seconds
Total elapsed time = 250.22s

    Nodes    |    Current Node    |     Objective Bounds      |     Work
 Expl Unexpl |  Obj  Depth IntInf | Incumbent    BestBd   Gap | It/Node Time

     0     0  573.53264    0 2419 1167.00000  573.53264  50.9%     -  260s
     0     0  592.36679    0 2063 1167.00000  592.36679  49.2%     -  420s
     0     0  593.34573    0 2145 1167.00000  593.34573  49.2%     -  470s
     0     0  593.35789    0 2100 1167.00000  593.35789  49.2%     -  475s
     0     0  593.36637    0 2067 1167.00000  593.36637  49.2%     -  481s
     0     0  593.36637    0 2057 1167.00000  593.36637  49.2%     -  483s
     0     0  603.27514    0 2216 1167.00000  603.27514  48.3%     -  645s
     0     0  604.03907    0 2230 1167.00000  604.03907  48.2%     -  698s
     0     0  604.08596    0 2232 1167.00000  604.08596  48.2%     -  712s
     0     0  604.08648    0 2196 1167.00000  604.08648  48.2%     -  716s
     0     0  614.68346    0 2357 1167.00000  614.68346  47.3%     -  922s
     0     0  617.60057    0 2235 1167.00000  617.60057  47.1%     - 1066s
     0     0  618.09422    0 2214 1167.00000  618.09422  47.0%     - 1137s
     0     0  618.12383    0 2171 1167.00000  618.12383  47.0%     - 1153s
     0     0  618.12907    0 2176 1167.00000  618.12907  47.0%     - 1162s
     0     0  621.48899    0 2386 1167.00000  621.48899  46.7%     - 1386s
     0     0  621.76290    0 2347 1167.00000  621.76290  46.7%     - 1463s
     0     0  621.83807    0 2319 1167.00000  621.83807  46.7%     - 1498s
     0     0  621.84997    0 2318 1167.00000  621.84997  46.7%     - 1511s
     0     0  621.85168    0 2304 1167.00000  621.85168  46.7%     - 1519s
     0     0  623.09092    0 2378 1167.00000  623.09092  46.6%     - 1671s
     0     0  623.40489    0 2349 1167.00000  623.40489  46.6%     - 1751s
     0     0  623.49287    0 2367 1167.00000  623.49287  46.6%     - 1791s
     0     0  623.49894    0 2345 1167.00000  623.49894  46.6%     - 1804s
     0     0  624.22741    0 2418 1167.00000  624.22741  46.5%     - 1926s
     0     0  624.38404    0 2456 1167.00000  624.38404  46.5%     - 2023s
     0     0  624.44075    0 2443 1167.00000  624.44075  46.5%     - 2068s
     0     0  624.44299    0 2403 1167.00000  624.44299  46.5%     - 2079s
     0     0  625.71189    0 2489 1167.00000  625.71189  46.4%     - 2200s
     0     0  625.79955    0 2492 1167.00000  625.79955  46.4%     - 2259s
     0     0  625.82339    0 2492 1167.00000  625.82339  46.4%     - 2284s
     0     0  625.82816    0 2466 1167.00000  625.82816  46.4%     - 2299s
     0     0  627.00952    0 2502 1167.00000  627.00952  46.3%     - 2495s
     0     0  627.10206    0 2543 1167.00000  627.10206  46.3%     - 2592s
     0     0  627.13361    0 2523 1167.00000  627.13361  46.3%     - 2627s
     0     0  627.14213    0 2554 1167.00000  627.14213  46.3%     - 2642s
     0     0  628.23159    0 2437 1167.00000  628.23159  46.2%     - 2812s
H    0     0                    1149.0000000  628.23159  45.3%     - 2856s
     0     0  628.38384    0 2497 1149.00000  628.38384  45.3%     - 2930s
     0     0  628.49537    0 2506 1149.00000  628.49537  45.3%     - 2986s
     0     0  628.50953    0 2507 1149.00000  628.50953  45.3%     - 3012s
     0     0  628.83710    0 2543 1149.00000  628.83710  45.3%     - 3112s
     0     0  628.89397    0 2595 1149.00000  628.89397  45.3%     - 3188s
     0     0  628.90074    0 2594 1149.00000  628.90074  45.3%     - 3206s
     0     0  629.69008    0 2580 1149.00000  629.69008  45.2%     - 3402s
     0     0  629.89729    0 2639 1149.00000  629.89729  45.2%     - 3494s
     0     0  629.91412    0 2623 1149.00000  629.91412  45.2%     - 3519s
     0     0  629.92025    0 2597 1149.00000  629.92025  45.2%     - 3532s
     0     0          -    0      1149.00000  629.92025  45.2%     - 3600s

Cutting planes:
  Cover: 5
  MIR: 114
  StrongCG: 31
  Zero half: 72
  RLT: 1416

Explored 1 nodes (460328 simplex iterations) in 3600.03 seconds
Thread count was 1 (of 40 available processors)

Solution count 2: 1149 1167 

Time limit reached
Best objective 1.149000000000e+03, best bound 6.300000000000e+02, gap 45.1697%

User-callback calls 10828, time in user-callback 0.03 sec
